








































































































32 57 55 15 75 4 54 16 
23 62 64 20 8 71 42 47 
1 25 29 22 60 70 39 9 76 
17 53 12 27 34 31 40 63 
66 65 37 72 58 52 5 51 26 
13 46 11 30 49 50 21 48 
44 41 7 38 73 43 33 67 45 
2 35 24 36 3 10 6 18 
14 28 74 61 59 69 68 56 
0 19 
